<number of tasks>
20

<cycle time>
1000

<order strength>
0,242


<task times>
1 209
2 141
3 476
4 233
5 180
6 507
7 150
8 155
9 53
10 506
11 434
12 216
13 97
14 232
15 92
16 441
17 236
18 149
19 144
20 544

<precedence relations>
1,4
2,5
3,6
4,8
5,7
5,10
6,9
7,12
8,11
9,13
10,14
10,15
11,16
12,18
13,17
14,19
15,20

<end>
